c Generated map
c Size: 10 * 10, weights in range: 1 to 10, walls: True, with ratio 0.05
c dim 1 of 6
c
p sp 100 162
c graph contains 100 nodes and 162 arcs
c
a 1 11 7
a 11 1 7
a 1 2 5
a 2 1 5
a 2 12 4
a 12 2 4
a 4 14 7
a 14 4 7
a 4 5 2
a 5 4 2
a 5 6 10
a 6 5 10
a 6 16 9
a 16 6 9
a 6 7 6
a 7 6 6
a 7 17 4
a 17 7 4
a 7 8 8
a 8 7 8
a 8 18 3
a 18 8 3
a 8 9 1
a 9 8 1
a 9 10 10
a 10 9 10
a 10 20 8
a 20 10 8
a 11 21 9
a 21 11 9
a 11 12 7
a 12 11 7
a 12 22 9
a 22 12 9
a 12 13 10
a 13 12 10
a 13 23 7
a 23 13 7
a 13 14 10
a 14 13 10
a 14 24 3
a 24 14 3
a 16 26 9
a 26 16 9
a 16 17 9
a 17 16 9
a 17 27 4
a 27 17 4
a 17 18 6
a 18 17 6
a 18 28 5
a 28 18 5
a 20 30 8
a 30 20 8
a 21 31 5
a 31 21 5
a 21 22 7
a 22 21 7
a 22 32 6
a 32 22 6
a 22 23 10
a 23 22 10
a 23 33 1
a 33 23 1
a 23 24 1
a 24 23 1
a 24 34 6
a 34 24 6
a 24 25 5
a 25 24 5
a 25 35 10
a 35 25 10
a 25 26 5
a 26 25 5
a 26 36 5
a 36 26 5
a 26 27 10
a 27 26 10
a 27 37 4
a 37 27 4
a 27 28 7
a 28 27 7
a 28 38 10
a 38 28 10
a 28 29 10
a 29 28 10
a 29 39 4
a 39 29 4
a 29 30 10
a 30 29 10
a 31 41 8
a 41 31 8
a 31 32 8
a 32 31 8
a 32 42 9
a 42 32 9
a 32 33 3
a 33 32 3
a 33 43 9
a 43 33 9
a 33 34 3
a 34 33 3
a 34 44 9
a 44 34 9
a 34 35 2
a 35 34 2
a 35 45 10
a 45 35 10
a 35 36 2
a 36 35 2
a 36 46 10
a 46 36 10
a 36 37 4
a 37 36 4
a 37 47 4
a 47 37 4
a 37 38 1
a 38 37 1
a 38 48 1
a 48 38 1
a 38 39 10
a 39 38 10
a 39 49 2
a 49 39 2
a 41 51 8
a 51 41 8
a 41 42 5
a 42 41 5
a 42 52 8
a 52 42 8
a 42 43 8
a 43 42 8
a 43 53 6
a 53 43 6
a 43 44 6
a 44 43 6
a 44 54 7
a 54 44 7
a 44 45 1
a 45 44 1
a 45 55 7
a 55 45 7
a 45 46 9
a 46 45 9
a 46 56 5
a 56 46 5
a 46 47 6
a 47 46 6
a 47 57 5
a 57 47 5
a 47 48 7
a 48 47 7
a 48 58 7
a 58 48 7
a 48 49 2
a 49 48 2
a 49 59 9
a 59 49 9
a 49 50 2
a 50 49 2
a 50 60 9
a 60 50 9
a 51 61 9
a 61 51 9
a 51 52 7
a 52 51 7
a 52 62 1
a 62 52 1
a 52 53 9
a 53 52 9
a 53 63 3
a 63 53 3
a 53 54 1
a 54 53 1
a 54 64 8
a 64 54 8
a 54 55 5
a 55 54 5
a 55 65 3
a 65 55 3
a 55 56 6
a 56 55 6
a 56 66 5
a 66 56 5
a 56 57 10
a 57 56 10
a 57 67 5
a 67 57 5
a 57 58 2
a 58 57 2
a 58 68 5
a 68 58 5
a 58 59 2
a 59 58 2
a 59 69 5
a 69 59 5
a 59 60 10
a 60 59 10
a 60 70 6
a 70 60 6
a 61 71 4
a 71 61 4
a 61 62 1
a 62 61 1
a 62 72 2
a 72 62 2
a 62 63 1
a 63 62 1
a 63 73 1
a 73 63 1
a 63 64 5
a 64 63 5
a 64 74 1
a 74 64 1
a 64 65 2
a 65 64 2
a 65 66 8
a 66 65 8
a 66 76 5
a 76 66 5
a 66 67 10
a 67 66 10
a 67 77 10
a 77 67 10
a 67 68 7
a 68 67 7
a 68 78 7
a 78 68 7
a 68 69 2
a 69 68 2
a 69 79 10
a 79 69 10
a 69 70 3
a 70 69 3
a 70 80 4
a 80 70 4
a 71 81 9
a 81 71 9
a 71 72 8
a 72 71 8
a 72 82 1
a 82 72 1
a 72 73 10
a 73 72 10
a 73 83 9
a 83 73 9
a 73 74 5
a 74 73 5
a 74 84 4
a 84 74 4
a 76 86 2
a 86 76 2
a 76 77 4
a 77 76 4
a 77 87 5
a 87 77 5
a 77 78 10
a 78 77 10
a 78 88 1
a 88 78 1
a 78 79 6
a 79 78 6
a 79 89 3
a 89 79 3
a 79 80 3
a 80 79 3
a 80 90 5
a 90 80 5
a 81 91 6
a 91 81 6
a 81 82 1
a 82 81 1
a 82 92 7
a 92 82 7
a 82 83 9
a 83 82 9
a 83 93 5
a 93 83 5
a 83 84 9
a 84 83 9
a 84 94 4
a 94 84 4
a 84 85 9
a 85 84 9
a 85 95 5
a 95 85 5
a 85 86 1
a 86 85 1
a 86 96 5
a 96 86 5
a 86 87 10
a 87 86 10
a 87 97 4
a 97 87 4
a 87 88 4
a 88 87 4
a 88 98 7
a 98 88 7
a 88 89 5
a 89 88 5
a 89 99 2
a 99 89 2
a 89 90 5
a 90 89 5
a 90 100 4
a 100 90 4
a 91 92 10
a 92 91 10
a 92 93 10
a 93 92 10
a 93 94 8
a 94 93 8
a 94 95 4
a 95 94 4
a 95 96 9
a 96 95 9
a 96 97 5
a 97 96 5
a 97 98 2
a 98 97 2
a 98 99 9
a 99 98 9
a 99 100 10
a 100 99 10
